
Gurobi 11.0.0 (mac64[arm], gurobi_cl) logging started Sun Jul 14 23:08:14 2024

Set parameter WLSAccessID
Set parameter WLSSecret
Set parameter LicenseID to value 2416028
Set parameter LogFile to value "gurobi.log"
Using license file /Library/gurobi/gurobi.lic
Academic license 2416028 - for non-commercial use only - registered to zh___@mskcc.org

Gurobi 11.0.0 (mac64[arm], gurobi_cl) logging started Sun Jul 14 23:12:31 2024

Set parameter WLSAccessID
Set parameter WLSSecret
Set parameter LicenseID to value 2416028
Set parameter LogFile to value "gurobi.log"
Using license file /Library/gurobi/gurobi.lic
Academic license 2416028 - for non-commercial use only - registered to zh___@mskcc.org
